s td 15 56 70
b 1 1 2 6 7 8 9 10 11 12 13 14 15 16 17 18 19 20 21 23 24 26 27 29 30 32 35 36 37 38 40 41 42 43 44 45 46 47 48 49 50 51 52 54 55 56 57 60 61 62 63 64 65 66 67 68 69
b 2 3 6 7 10 15 17 18 21 23 26 29 32 36 38 40 41 42 43 45 47 50 55 56 57 61 62 65 66 67 68 69
b 3 1 2 6 7 8 9 10 11 12 13 14 15 16 17 18 19 20 21 23 24 26 27 29 30 32 35 36 37 38 40 41 42 43 44 46 47 48 49 50 51 52 54 55 56 57 59 60 61 62 63 64 65 66 67 68 69
b 4 1 2 6 7 8 9 10 11 12 13 14 15 16 17 18 19 20 21 23 24 26 27 28 29 30 32 35 36 37 38 40 41 42 43 44 46 47 48 49 50 51 52 54 55 56 57 59 60 61 62 63 64 65 66 67 68
b 5 1 2 4 6 7 8 9 10 11 12 13 14 15 16 17 18 19 20 21 23 24 26 27 28 29 30 32 35 37 38 40 41 42 43 44 46 47 48 49 50 51 52 54 55 56 59 60 61 62 63 64 65 66 67 68
b 6 1 2 4 6 7 8 9 10 11 12 13 14 15 16 17 19 20 21 23 24 26 27 28 29 30 32 34 35 37 38 40 42 43 44 46 47 48 49 50 51 52 54 55 56 59 60 61 62 63 64 65 66 67 68
b 7 1 2 4 5 7 8 11 12 14 16 20 21 24 28 30 34 37 42 43 48 51 52 54 56 59 60 62 63 64 66
b 8 2 12 14 15 19 20 21 24 25 28 29 34 35 42 43 46 47 48 50 56 59 60 61 62 63 64 67 68
b 9 1 2 6 7 8 9 10 11 12 14 15 17 20 21 23 24 26 27 28 29 30 31 32 34 35 38 40 42 44 46 47 49 50 51 52 54 55 56 59 60 63 64 65 66
b 10 1 2 6 8 9 10 14 20 21 23 27 28 29 31 32 34 38 40 42 44 49 50 51 52 53 54 55 60 63 64 65
b 11 6 7 9 10 11 12 13 17 19 20 21 30 36 38 40 42 43 44 48 52 58 59 60 62 69
b 12 1 2 6 7 8 9 10 11 12 13 14 15 16 17 18 20 21 22 23 24 26 27 29 30 32 35 36 37 38 40 41 42 43 44 45 46 47 48 49 50 51 52 54 55 56 57 60 61 62 63 64 65 66 67 68 69
b 13 1 2 7 9 10 11 12 13 14 15 16 17 18 20 22 23 24 26 27 29 30 33 35 38 40 41 43 44 45 46 47 48 49 50 51 52 54 55 56 57 60 61 62 64 65 66 67 68 69
b 14 7 9 10 12 13 14 15 16 17 18 20 22 24 26 27 29 30 33 35 40 44 45 48 49 51 54 57 60 61 64 65 66 67 68 69 70
b 15 2 6 7 8 9 10 12 14 15 16 17 18 21 22 23 26 32 36 37 38 39 41 45 46 51 54 55 56 60 61 62 63 65 66 68 69
1 2
1 3
1 12
3 4
3 11
4 5
5 6
6 7
6 8
6 9
9 10
12 13
12 15
13 14
